32      4       
18      19      15      13      
0       0       0       0       0       3       2       3       4       
10      18      0       0       13      3       8       6       5       
5       0       15      15      0       2       6       5       
4       18      0       10      0       2       8       5       
8       0       15      8       0       1       7       
7       18      0       15      0       1       7       
4       12      19      0       0       2       10      9       
5       0       0       10      6       2       10      9       
4       0       6       8       0       3       14      13      11      
5       0       0       8       1       3       14      12      11      
4       0       19      0       13      2       16      15      
10      0       19      15      0       2       16      15      
6       0       17      0       7       2       16      15      
3       18      19      0       0       1       15      
7       0       0       15      13      2       20      17      
2       11      0       12      0       2       20      18      
7       0       0       9       9       1       18      
3       13      0       0       13      1       19      
5       15      19      0       0       2       22      21      
6       0       10      9       0       1       21      
3       13      0       0       13      2       24      23      
1       10      0       0       5       1       23      
1       6       0       0       9       2       28      26      
1       0       18      14      0       1       25      
7       16      10      0       0       2       28      27      
6       17      10      0       0       1       27      
2       4       0       8       0       2       30      29      
5       0       12      0       8       2       30      29      
2       0       0       13      13      1       31      
8       0       6       0       12      1       31      
2       14      0       0       11      1       32      
0       0       0       0       0       0       
